************************************************************************
file with basedata            : mm27_.bas
initial value random generator: 127870085
************************************************************************
projects                      :  1
jobs (incl. supersource/sink ):  12
horizon                       :  69
RESOURCES
  - renewable                 :  2   R
  - nonrenewable              :  2   N
  - doubly constrained        :  0   D
************************************************************************
PROJECT INFORMATION:
pronr.  #jobs rel.date duedate tardcost  MPM-Time
    1     10      0       14        7       14
************************************************************************
PRECEDENCE RELATIONS:
jobnr.    #modes  #successors   successors
   0        1          3           1   2   3
   1        3          2           8   9
   2        3          3           4   6   8
   3        3          2           5   7
   4        3          1          10
   5        3          1          10
   6        3          2           7  10
   7        3          1           9
   8        3          1          11
   9        3          1          11
  10        3          1          11
  11        1          0        
************************************************************************
REQUESTS/DURATIONS:
jobnr. mode duration  R 1  R 2  R 3  R 4  E(W 1)  E(W 2)  E(W 3)
------------------------------------------------------------------------
  0      1     0       0    0    0    0     0       0       0
  1      1     1       8    0    0    3     8       0       3
  2      1     5       0    6    0    4    30       0      20
  3      1     8       0    9    0    2    72       0      16
  4      1     1       0    1    0    3     2       0       3
  5      1     3       0    5    8    0    15      24       0
  6      1     2       0    9    3    0    18       6       0
  7      1     2       5    0    6    0    10      12       0
  8      1     2       9    0    0    7    18       0      14
  9      1     4       0    8    7    0    32      28       0
 10      1     1       0    6    3    0     6       3       0
 11      1     0       0    0    0    0     0       0       0
************************************************************************
RESOURCEAVAILABILITIES:
  R 1  R 2  R 3
   52   41   31
************************************************************************
RESOURCE LIMITS:
jobnr.  l(R 1)  u(R 1)  l(R 2)  u(R 2)  l(R 3)  u(R 3)
------------------------------------------------------------------------
  0        0       0       0       0       0       0
  1        4       8       0       0       2       3
  2        3       6       0       0       2       4
  3        5       9       0       0       1       2
  4        1       2       0       0       2       3
  5        3       5       4       8       0       0
  6        5       9       2       3       0       0
  7        3       5       3       6       0       0
  8        5       9       0       0       4       7
  9        4       8       4       7       0       0
 10        3       6       2       3       0       0
 11        0       0       0       0       0       0
************************************************************************
SCENARIOS:
------------------------------------------------------------------------
RESOURCE k = 1
s = 1: (0, 9, 20, 72, 3, 17, 21, 7, 17, 39, 7, 0)
s = 2: (0, 6, 30, 61, 2, 20, 23, 6, 12, 41, 6, 0)
s = 3: (0, 7, 36, 57, 3, 19, 14, 11, 26, 26, 7, 0)
s = 4: (0, 10, 28, 66, 3, 21, 20, 13, 23, 44, 6, 0)
s = 5: (0, 9, 23, 93, 2, 14, 13, 9, 17, 24, 7, 0)
s = 6: (0, 5, 21, 78, 3, 11, 14, 7, 17, 26, 6, 0)
s = 7: (0, 9, 20, 58, 2, 14, 18, 10, 20, 28, 5, 0)
s = 8: (0, 10, 37, 83, 3, 13, 19, 8, 15, 35, 6, 0)
s = 9: (0, 10, 23, 56, 3, 10, 29, 9, 17, 44, 7, 0)
s = 10: (0, 8, 16, 63, 3, 13, 16, 11, 17, 22, 4, 0)
s = 11: (0, 7, 28, 99, 3, 21, 14, 9, 15, 39, 7, 0)
s = 12: (0, 12, 34, 52, 3, 15, 12, 7, 12, 27, 7, 0)
s = 13: (0, 7, 26, 109, 3, 17, 15, 8, 17, 37, 6, 0)
s = 14: (0, 10, 29, 57, 3, 17, 12, 10, 20, 36, 10, 0)
s = 15: (0, 9, 45, 64, 2, 18, 26, 11, 19, 55, 6, 0)
s = 16: (0, 10, 22, 74, 4, 15, 11, 16, 25, 33, 9, 0)
s = 17: (0, 9, 24, 57, 3, 18, 15, 10, 30, 38, 10, 0)
s = 18: (0, 9, 33, 63, 3, 17, 15, 7, 32, 24, 8, 0)
s = 19: (0, 10, 20, 88, 2, 18, 29, 13, 16, 25, 9, 0)
s = 20: (0, 13, 23, 46, 2, 22, 15, 16, 18, 34, 7, 0)
s = 21: (0, 14, 36, 83, 3, 18, 18, 14, 11, 33, 8, 0)
s = 22: (0, 11, 35, 86, 2, 14, 21, 8, 14, 33, 7, 0)
s = 23: (0, 10, 32, 43, 3, 22, 13, 9, 25, 31, 8, 0)
s = 24: (0, 11, 20, 111, 3, 11, 14, 8, 15, 31, 7, 0)
s = 25: (0, 10, 37, 74, 3, 14, 30, 11, 16, 34, 7, 0)
s = 26: (0, 10, 27, 90, 2, 17, 24, 11, 13, 40, 5, 0)
s = 27: (0, 7, 36, 44, 3, 12, 12, 11, 18, 33, 5, 0)
s = 28: (0, 10, 46, 56, 3, 20, 16, 11, 21, 37, 8, 0)
s = 29: (0, 11, 34, 95, 3, 12, 24, 12, 20, 27, 8, 0)
s = 30: (0, 7, 31, 50, 2, 13, 16, 11, 24, 19, 7, 0)
s = 31: (0, 10, 34, 71, 3, 13, 20, 9, 20, 31, 5, 0)
s = 32: (0, 11, 28, 66, 3, 21, 24, 18, 14, 27, 6, 0)
s = 33: (0, 10, 35, 80, 3, 25, 20, 8, 20, 26, 6, 0)
s = 34: (0, 10, 29, 62, 2, 12, 24, 12, 12, 29, 6, 0)
s = 35: (0, 10, 19, 92, 4, 17, 22, 14, 18, 26, 6, 0)
s = 36: (0, 8, 38, 57, 2, 21, 21, 12, 29, 28, 7, 0)
s = 37: (0, 7, 28, 91, 3, 18, 15, 10, 22, 43, 5, 0)
s = 38: (0, 8, 27, 97, 2, 10, 25, 14, 26, 37, 5, 0)
s = 39: (0, 8, 31, 86, 2, 11, 21, 8, 12, 53, 5, 0)
s = 40: (0, 5, 30, 45, 3, 13, 25, 14, 18, 22, 7, 0)
s = 41: (0, 13, 33, 48, 2, 13, 14, 10, 31, 34, 5, 0)
s = 42: (0, 9, 30, 76, 2, 20, 27, 6, 27, 20, 8, 0)
s = 43: (0, 8, 33, 89, 3, 19, 12, 15, 17, 34, 7, 0)
s = 44: (0, 11, 30, 75, 2, 15, 12, 11, 17, 35, 8, 0)
s = 45: (0, 8, 44, 85, 2, 13, 13, 18, 14, 43, 4, 0)
s = 46: (0, 5, 31, 106, 2, 15, 15, 12, 24, 44, 9, 0)
s = 47: (0, 9, 37, 72, 3, 13, 15, 8, 21, 20, 4, 0)
s = 48: (0, 11, 35, 51, 2, 13, 20, 13, 11, 33, 5, 0)
s = 49: (0, 5, 31, 75, 2, 15, 11, 15, 13, 37, 6, 0)
s = 50: (0, 9, 35, 57, 2, 21, 25, 15, 15, 32, 10, 0)
s = 51: (0, 9, 19, 47, 3, 14, 27, 7, 12, 22, 7, 0)
s = 52: (0, 6, 35, 88, 2, 21, 15, 11, 17, 21, 5, 0)
s = 53: (0, 12, 28, 94, 3, 17, 17, 9, 18, 22, 8, 0)
s = 54: (0, 7, 19, 65, 3, 11, 15, 9, 13, 39, 7, 0)
s = 55: (0, 14, 22, 93, 2, 20, 11, 9, 19, 49, 5, 0)
s = 56: (0, 9, 45, 75, 2, 14, 23, 18, 15, 28, 7, 0)
s = 57: (0, 8, 39, 100, 3, 23, 16, 9, 16, 29, 7, 0)
s = 58: (0, 9, 44, 55, 3, 23, 26, 11, 22, 19, 6, 0)
s = 59: (0, 14, 43, 114, 2, 14, 12, 11, 19, 27, 7, 0)
s = 60: (0, 14, 24, 100, 3, 18, 14, 10, 19, 36, 7, 0)
s = 61: (0, 11, 24, 96, 2, 11, 13, 15, 12, 41, 7, 0)
s = 62: (0, 6, 33, 62, 3, 27, 15, 10, 16, 37, 9, 0)
s = 63: (0, 9, 32, 124, 2, 12, 13, 11, 19, 52, 5, 0)
s = 64: (0, 9, 33, 80, 3, 15, 20, 7, 18, 40, 8, 0)
s = 65: (0, 15, 43, 81, 3, 10, 13, 9, 18, 21, 10, 0)
s = 66: (0, 10, 41, 75, 2, 13, 14, 11, 15, 42, 8, 0)
s = 67: (0, 10, 53, 112, 3, 19, 15, 13, 11, 27, 8, 0)
s = 68: (0, 6, 27, 62, 2, 19, 15, 8, 33, 26, 5, 0)
s = 69: (0, 8, 35, 70, 3, 11, 22, 10, 26, 30, 4, 0)
s = 70: (0, 5, 30, 55, 3, 17, 18, 7, 22, 25, 7, 0)
s = 71: (0, 8, 28, 71, 2, 11, 18, 7, 21, 35, 9, 0)
s = 72: (0, 9, 24, 47, 2, 19, 21, 8, 15, 38, 6, 0)
s = 73: (0, 13, 27, 51, 3, 14, 24, 10, 23, 21, 9, 0)
s = 74: (0, 8, 39, 54, 4, 21, 23, 11, 15, 43, 7, 0)
s = 75: (0, 8, 25, 71, 3, 22, 17, 9, 19, 45, 5, 0)
s = 76: (0, 7, 39, 77, 2, 20, 28, 11, 30, 41, 8, 0)
s = 77: (0, 9, 35, 74, 2, 22, 24, 9, 15, 32, 6, 0)
s = 78: (0, 9, 33, 83, 2, 25, 13, 9, 13, 33, 6, 0)
s = 79: (0, 10, 29, 40, 2, 14, 16, 9, 19, 27, 6, 0)
s = 80: (0, 6, 22, 78, 2, 14, 11, 10, 22, 31, 6, 0)
s = 81: (0, 8, 34, 81, 2, 20, 22, 13, 17, 27, 6, 0)
s = 82: (0, 5, 45, 91, 2, 15, 15, 6, 26, 43, 5, 0)
s = 83: (0, 10, 25, 65, 2, 19, 18, 11, 16, 53, 4, 0)
s = 84: (0, 8, 18, 99, 3, 19, 22, 12, 17, 41, 8, 0)
s = 85: (0, 11, 46, 40, 3, 18, 19, 11, 27, 40, 7, 0)
s = 86: (0, 10, 32, 75, 2, 12, 16, 10, 27, 31, 7, 0)
s = 87: (0, 7, 26, 98, 3, 8, 18, 13, 10, 35, 7, 0)
s = 88: (0, 9, 28, 90, 3, 11, 23, 8, 24, 43, 7, 0)
s = 89: (0, 12, 44, 49, 2, 16, 11, 13, 21, 32, 7, 0)
s = 90: (0, 13, 41, 89, 3, 14, 13, 13, 18, 25, 10, 0)
s = 91: (0, 8, 26, 62, 2, 15, 15, 8, 21, 27, 5, 0)
s = 92: (0, 7, 22, 81, 2, 15, 15, 8, 25, 48, 7, 0)
s = 93: (0, 9, 34, 50, 2, 12, 23, 11, 18, 28, 4, 0)
s = 94: (0, 7, 34, 83, 3, 16, 19, 11, 19, 40, 7, 0)
s = 95: (0, 13, 42, 53, 2, 14, 19, 10, 17, 28, 6, 0)
s = 96: (0, 6, 28, 62, 2, 22, 14, 7, 18, 20, 7, 0)
s = 97: (0, 13, 22, 59, 2, 12, 26, 12, 12, 36, 4, 0)
s = 98: (0, 7, 25, 63, 2, 21, 18, 14, 13, 35, 7, 0)
s = 99: (0, 6, 30, 64, 2, 11, 20, 9, 19, 20, 7, 0)
s = 100: (0, 12, 27, 88, 2, 12, 12, 9, 14, 30, 9, 0)
s = 101: (0, 8, 26, 67, 2, 14, 18, 10, 24, 42, 7, 0)
s = 102: (0, 7, 41, 58, 2, 17, 20, 10, 25, 36, 6, 0)
s = 103: (0, 8, 22, 52, 3, 23, 15, 7, 13, 24, 7, 0)
s = 104: (0, 10, 21, 64, 2, 13, 23, 11, 12, 43, 5, 0)
s = 105: (0, 8, 27, 53, 2, 13, 16, 14, 19, 26, 7, 0)
s = 106: (0, 8, 20, 86, 3, 11, 20, 11, 25, 31, 5, 0)
s = 107: (0, 10, 16, 127, 2, 10, 22, 7, 20, 33, 6, 0)
s = 108: (0, 12, 24, 97, 2, 10, 13, 9, 12, 44, 5, 0)
s = 109: (0, 7, 23, 102, 3, 11, 15, 8, 14, 44, 5, 0)
s = 110: (0, 14, 32, 73, 2, 22, 16, 15, 11, 24, 9, 0)
s = 111: (0, 7, 44, 72, 2, 13, 12, 8, 19, 25, 7, 0)
s = 112: (0, 10, 42, 66, 3, 13, 20, 15, 26, 49, 5, 0)
s = 113: (0, 12, 27, 61, 2, 29, 21, 8, 25, 36, 7, 0)
s = 114: (0, 12, 33, 58, 4, 14, 16, 10, 20, 37, 7, 0)
s = 115: (0, 7, 20, 51, 4, 10, 15, 6, 27, 37, 6, 0)
s = 116: (0, 10, 22, 84, 2, 22, 15, 9, 24, 32, 6, 0)
s = 117: (0, 14, 32, 58, 2, 21, 20, 9, 13, 25, 5, 0)
s = 118: (0, 5, 24, 89, 2, 14, 12, 7, 26, 36, 6, 0)
s = 119: (0, 7, 42, 63, 2, 17, 20, 12, 20, 25, 4, 0)
s = 120: (0, 6, 45, 87, 3, 12, 12, 8, 18, 47, 5, 0)
s = 121: (0, 8, 27, 110, 2, 9, 14, 13, 20, 32, 5, 0)
s = 122: (0, 10, 35, 85, 3, 13, 14, 11, 21, 23, 7, 0)
s = 123: (0, 9, 46, 92, 2, 8, 12, 12, 30, 19, 7, 0)
s = 124: (0, 8, 25, 66, 2, 18, 22, 15, 32, 31, 6, 0)
s = 125: (0, 9, 30, 60, 4, 14, 15, 12, 28, 24, 5, 0)
s = 126: (0, 9, 23, 86, 2, 20, 27, 6, 28, 28, 6, 0)
s = 127: (0, 8, 46, 53, 2, 12, 22, 10, 14, 52, 5, 0)
s = 128: (0, 8, 40, 54, 2, 11, 17, 11, 23, 19, 9, 0)
s = 129: (0, 8, 38, 64, 2, 20, 19, 11, 25, 32, 6, 0)
s = 130: (0, 7, 38, 71, 2, 14, 20, 7, 15, 23, 11, 0)
s = 131: (0, 8, 46, 39, 2, 13, 14, 10, 25, 39, 7, 0)
s = 132: (0, 8, 34, 57, 2, 17, 14, 11, 13, 36, 7, 0)
s = 133: (0, 9, 25, 45, 4, 16, 30, 14, 16, 28, 6, 0)
s = 134: (0, 10, 29, 123, 3, 19, 16, 9, 30, 20, 6, 0)
s = 135: (0, 7, 24, 62, 2, 20, 24, 7, 17, 43, 5, 0)
s = 136: (0, 12, 41, 81, 2, 16, 17, 9, 25, 30, 5, 0)
s = 137: (0, 10, 25, 89, 3, 12, 17, 15, 10, 40, 4, 0)
s = 138: (0, 12, 39, 52, 3, 16, 19, 13, 18, 30, 5, 0)
s = 139: (0, 7, 33, 69, 2, 13, 16, 8, 22, 39, 10, 0)
s = 140: (0, 12, 32, 87, 3, 25, 18, 7, 15, 32, 5, 0)
s = 141: (0, 6, 41, 81, 3, 19, 23, 8, 13, 61, 6, 0)
s = 142: (0, 9, 50, 74, 2, 12, 12, 12, 17, 37, 8, 0)
s = 143: (0, 7, 45, 80, 2, 15, 16, 15, 29, 18, 5, 0)
s = 144: (0, 6, 38, 81, 2, 17, 21, 12, 21, 38, 6, 0)
s = 145: (0, 9, 26, 58, 3, 12, 20, 8, 22, 21, 6, 0)
s = 146: (0, 7, 31, 77, 2, 16, 15, 11, 13, 41, 5, 0)
s = 147: (0, 6, 28, 64, 2, 16, 14, 12, 22, 39, 4, 0)
s = 148: (0, 6, 26, 79, 2, 16, 16, 12, 12, 26, 8, 0)
s = 149: (0, 11, 23, 61, 3, 25, 23, 12, 21, 53, 6, 0)
s = 150: (0, 9, 27, 45, 3, 20, 26, 11, 15, 24, 7, 0)
s = 151: (0, 7, 32, 73, 2, 19, 12, 11, 16, 38, 7, 0)
s = 152: (0, 13, 33, 93, 4, 11, 20, 16, 13, 28, 4, 0)
s = 153: (0, 6, 23, 69, 2, 26, 15, 12, 28, 18, 8, 0)
s = 154: (0, 9, 19, 53, 2, 8, 18, 7, 17, 44, 6, 0)
s = 155: (0, 10, 44, 78, 3, 22, 32, 11, 12, 27, 5, 0)
s = 156: (0, 6, 24, 103, 3, 14, 24, 10, 12, 24, 6, 0)
s = 157: (0, 6, 22, 71, 3, 18, 18, 9, 15, 24, 6, 0)
s = 158: (0, 8, 28, 41, 2, 10, 21, 8, 11, 18, 7, 0)
s = 159: (0, 8, 27, 77, 2, 23, 19, 18, 21, 35, 6, 0)
s = 160: (0, 7, 43, 71, 2, 13, 18, 17, 17, 45, 6, 0)
s = 161: (0, 7, 44, 71, 3, 10, 19, 11, 19, 32, 5, 0)
s = 162: (0, 11, 32, 50, 2, 10, 13, 12, 25, 32, 5, 0)
s = 163: (0, 13, 38, 71, 3, 20, 17, 13, 17, 29, 4, 0)
s = 164: (0, 8, 34, 71, 3, 10, 16, 11, 14, 21, 9, 0)
s = 165: (0, 11, 20, 62, 2, 18, 26, 8, 22, 34, 4, 0)
s = 166: (0, 8, 42, 80, 3, 19, 15, 9, 13, 21, 5, 0)
s = 167: (0, 9, 36, 49, 3, 14, 23, 11, 17, 31, 5, 0)
s = 168: (0, 10, 50, 79, 2, 11, 15, 7, 14, 44, 6, 0)
s = 169: (0, 8, 44, 40, 3, 14, 20, 8, 12, 22, 5, 0)
s = 170: (0, 8, 30, 56, 2, 13, 16, 10, 23, 38, 5, 0)
s = 171: (0, 7, 36, 82, 2, 17, 20, 7, 20, 22, 5, 0)
s = 172: (0, 6, 27, 55, 2, 16, 13, 12, 23, 31, 5, 0)
s = 173: (0, 9, 33, 65, 3, 10, 11, 12, 17, 39, 5, 0)
s = 174: (0, 14, 28, 72, 4, 16, 24, 14, 20, 27, 6, 0)
s = 175: (0, 6, 31, 81, 2, 13, 15, 14, 16, 32, 8, 0)
s = 176: (0, 10, 37, 65, 3, 21, 20, 10, 30, 31, 7, 0)
s = 177: (0, 6, 29, 47, 4, 17, 16, 8, 19, 38, 5, 0)
s = 178: (0, 6, 43, 40, 3, 10, 21, 10, 19, 43, 9, 0)
s = 179: (0, 6, 33, 59, 3, 25, 17, 8, 19, 37, 7, 0)
s = 180: (0, 7, 32, 107, 4, 13, 16, 12, 13, 49, 6, 0)
s = 181: (0, 7, 18, 73, 3, 28, 18, 6, 17, 30, 7, 0)
s = 182: (0, 7, 31, 83, 2, 18, 18, 15, 10, 27, 5, 0)
s = 183: (0, 9, 30, 91, 3, 19, 18, 8, 20, 47, 6, 0)
s = 184: (0, 6, 40, 38, 2, 17, 16, 14, 20, 31, 4, 0)
s = 185: (0, 14, 30, 62, 3, 13, 22, 10, 14, 51, 9, 0)
s = 186: (0, 5, 30, 81, 2, 13, 13, 8, 12, 41, 6, 0)
s = 187: (0, 8, 46, 58, 2, 9, 13, 17, 15, 20, 8, 0)
s = 188: (0, 8, 20, 103, 3, 14, 28, 10, 24, 37, 6, 0)
s = 189: (0, 7, 21, 74, 2, 23, 21, 11, 16, 28, 10, 0)
s = 190: (0, 6, 26, 65, 3, 10, 23, 8, 17, 22, 4, 0)
s = 191: (0, 12, 28, 74, 2, 14, 11, 8, 15, 22, 6, 0)
s = 192: (0, 9, 57, 101, 3, 11, 14, 9, 23, 27, 7, 0)
s = 193: (0, 10, 32, 47, 2, 14, 15, 13, 23, 35, 7, 0)
s = 194: (0, 7, 39, 75, 4, 28, 13, 12, 14, 37, 9, 0)
s = 195: (0, 14, 23, 80, 2, 8, 22, 11, 21, 45, 9, 0)
s = 196: (0, 10, 24, 57, 3, 18, 19, 10, 10, 36, 7, 0)
s = 197: (0, 8, 20, 69, 2, 23, 20, 7, 11, 32, 7, 0)
s = 198: (0, 6, 29, 88, 3, 16, 13, 8, 20, 30, 7, 0)
s = 199: (0, 9, 26, 89, 3, 16, 11, 7, 19, 22, 5, 0)
s = 200: (0, 9, 37, 114, 2, 12, 24, 9, 18, 37, 8, 0)
------------------------------------------------------------------------
RESOURCE k = 2
s = 1: (0, 0, 0, 0, 0, 27, 7, 8, 0, 34, 4, 0)
s = 2: (0, 0, 0, 0, 0, 32, 8, 7, 0, 36, 3, 0)
s = 3: (0, 0, 0, 0, 0, 30, 5, 13, 0, 23, 4, 0)
s = 4: (0, 0, 0, 0, 0, 33, 7, 16, 0, 39, 3, 0)
s = 5: (0, 0, 0, 0, 0, 22, 5, 10, 0, 21, 4, 0)
s = 6: (0, 0, 0, 0, 0, 18, 5, 8, 0, 22, 3, 0)
s = 7: (0, 0, 0, 0, 0, 21, 6, 12, 0, 24, 3, 0)
s = 8: (0, 0, 0, 0, 0, 21, 7, 9, 0, 31, 3, 0)
s = 9: (0, 0, 0, 0, 0, 16, 10, 11, 0, 39, 4, 0)
s = 10: (0, 0, 0, 0, 0, 21, 6, 13, 0, 20, 2, 0)
s = 11: (0, 0, 0, 0, 0, 34, 5, 10, 0, 34, 4, 0)
s = 12: (0, 0, 0, 0, 0, 24, 4, 8, 0, 24, 4, 0)
s = 13: (0, 0, 0, 0, 0, 26, 5, 10, 0, 33, 3, 0)
s = 14: (0, 0, 0, 0, 0, 27, 4, 12, 0, 32, 5, 0)
s = 15: (0, 0, 0, 0, 0, 29, 9, 13, 0, 48, 3, 0)
s = 16: (0, 0, 0, 0, 0, 24, 4, 19, 0, 29, 5, 0)
s = 17: (0, 0, 0, 0, 0, 28, 5, 12, 0, 34, 5, 0)
s = 18: (0, 0, 0, 0, 0, 27, 5, 8, 0, 21, 4, 0)
s = 19: (0, 0, 0, 0, 0, 28, 10, 15, 0, 22, 5, 0)
s = 20: (0, 0, 0, 0, 0, 36, 5, 19, 0, 30, 4, 0)
s = 21: (0, 0, 0, 0, 0, 29, 6, 17, 0, 29, 4, 0)
s = 22: (0, 0, 0, 0, 0, 22, 7, 9, 0, 29, 4, 0)
s = 23: (0, 0, 0, 0, 0, 35, 5, 11, 0, 27, 4, 0)
s = 24: (0, 0, 0, 0, 0, 18, 5, 9, 0, 27, 4, 0)
s = 25: (0, 0, 0, 0, 0, 22, 10, 13, 0, 30, 4, 0)
s = 26: (0, 0, 0, 0, 0, 27, 8, 13, 0, 35, 3, 0)
s = 27: (0, 0, 0, 0, 0, 19, 4, 13, 0, 29, 3, 0)
s = 28: (0, 0, 0, 0, 0, 32, 6, 13, 0, 33, 4, 0)
s = 29: (0, 0, 0, 0, 0, 19, 8, 14, 0, 23, 4, 0)
s = 30: (0, 0, 0, 0, 0, 21, 6, 13, 0, 17, 4, 0)
s = 31: (0, 0, 0, 0, 0, 20, 7, 11, 0, 27, 3, 0)
s = 32: (0, 0, 0, 0, 0, 33, 8, 21, 0, 24, 3, 0)
s = 33: (0, 0, 0, 0, 0, 39, 7, 10, 0, 23, 3, 0)
s = 34: (0, 0, 0, 0, 0, 19, 8, 14, 0, 26, 3, 0)
s = 35: (0, 0, 0, 0, 0, 27, 8, 17, 0, 23, 3, 0)
s = 36: (0, 0, 0, 0, 0, 33, 7, 14, 0, 25, 4, 0)
s = 37: (0, 0, 0, 0, 0, 28, 5, 12, 0, 38, 3, 0)
s = 38: (0, 0, 0, 0, 0, 16, 9, 17, 0, 32, 3, 0)
s = 39: (0, 0, 0, 0, 0, 17, 7, 10, 0, 47, 3, 0)
s = 40: (0, 0, 0, 0, 0, 21, 9, 16, 0, 19, 4, 0)
s = 41: (0, 0, 0, 0, 0, 21, 5, 12, 0, 30, 3, 0)
s = 42: (0, 0, 0, 0, 0, 31, 9, 7, 0, 18, 4, 0)
s = 43: (0, 0, 0, 0, 0, 31, 4, 18, 0, 30, 4, 0)
s = 44: (0, 0, 0, 0, 0, 24, 4, 13, 0, 31, 4, 0)
s = 45: (0, 0, 0, 0, 0, 20, 5, 21, 0, 38, 2, 0)
s = 46: (0, 0, 0, 0, 0, 23, 5, 14, 0, 39, 5, 0)
s = 47: (0, 0, 0, 0, 0, 21, 5, 9, 0, 17, 2, 0)
s = 48: (0, 0, 0, 0, 0, 20, 7, 16, 0, 29, 3, 0)
s = 49: (0, 0, 0, 0, 0, 24, 4, 18, 0, 33, 3, 0)
s = 50: (0, 0, 0, 0, 0, 33, 9, 18, 0, 28, 5, 0)
s = 51: (0, 0, 0, 0, 0, 23, 9, 8, 0, 19, 4, 0)
s = 52: (0, 0, 0, 0, 0, 34, 5, 13, 0, 18, 3, 0)
s = 53: (0, 0, 0, 0, 0, 28, 6, 10, 0, 19, 4, 0)
s = 54: (0, 0, 0, 0, 0, 17, 5, 11, 0, 34, 4, 0)
s = 55: (0, 0, 0, 0, 0, 32, 4, 10, 0, 43, 3, 0)
s = 56: (0, 0, 0, 0, 0, 22, 8, 22, 0, 24, 4, 0)
s = 57: (0, 0, 0, 0, 0, 36, 6, 11, 0, 25, 4, 0)
s = 58: (0, 0, 0, 0, 0, 37, 9, 13, 0, 17, 3, 0)
s = 59: (0, 0, 0, 0, 0, 23, 4, 13, 0, 24, 4, 0)
s = 60: (0, 0, 0, 0, 0, 28, 5, 11, 0, 31, 4, 0)
s = 61: (0, 0, 0, 0, 0, 18, 5, 18, 0, 36, 4, 0)
s = 62: (0, 0, 0, 0, 0, 43, 5, 12, 0, 32, 5, 0)
s = 63: (0, 0, 0, 0, 0, 18, 5, 13, 0, 46, 3, 0)
s = 64: (0, 0, 0, 0, 0, 24, 7, 9, 0, 35, 4, 0)
s = 65: (0, 0, 0, 0, 0, 15, 5, 11, 0, 19, 5, 0)
s = 66: (0, 0, 0, 0, 0, 20, 5, 14, 0, 37, 4, 0)
s = 67: (0, 0, 0, 0, 0, 30, 5, 15, 0, 23, 4, 0)
s = 68: (0, 0, 0, 0, 0, 30, 5, 10, 0, 23, 3, 0)
s = 69: (0, 0, 0, 0, 0, 17, 8, 12, 0, 26, 2, 0)
s = 70: (0, 0, 0, 0, 0, 27, 6, 8, 0, 22, 4, 0)
s = 71: (0, 0, 0, 0, 0, 17, 6, 8, 0, 30, 5, 0)
s = 72: (0, 0, 0, 0, 0, 30, 7, 10, 0, 34, 3, 0)
s = 73: (0, 0, 0, 0, 0, 23, 8, 12, 0, 18, 5, 0)
s = 74: (0, 0, 0, 0, 0, 33, 8, 13, 0, 37, 4, 0)
s = 75: (0, 0, 0, 0, 0, 36, 6, 11, 0, 40, 3, 0)
s = 76: (0, 0, 0, 0, 0, 31, 10, 13, 0, 36, 4, 0)
s = 77: (0, 0, 0, 0, 0, 34, 8, 11, 0, 28, 3, 0)
s = 78: (0, 0, 0, 0, 0, 39, 5, 11, 0, 29, 3, 0)
s = 79: (0, 0, 0, 0, 0, 21, 6, 11, 0, 24, 3, 0)
s = 80: (0, 0, 0, 0, 0, 22, 4, 12, 0, 27, 3, 0)
s = 81: (0, 0, 0, 0, 0, 32, 8, 15, 0, 24, 3, 0)
s = 82: (0, 0, 0, 0, 0, 23, 5, 8, 0, 38, 3, 0)
s = 83: (0, 0, 0, 0, 0, 30, 6, 13, 0, 46, 2, 0)
s = 84: (0, 0, 0, 0, 0, 30, 8, 14, 0, 36, 4, 0)
s = 85: (0, 0, 0, 0, 0, 28, 7, 13, 0, 35, 4, 0)
s = 86: (0, 0, 0, 0, 0, 19, 6, 12, 0, 27, 4, 0)
s = 87: (0, 0, 0, 0, 0, 13, 6, 16, 0, 31, 4, 0)
s = 88: (0, 0, 0, 0, 0, 17, 8, 10, 0, 37, 4, 0)
s = 89: (0, 0, 0, 0, 0, 25, 4, 15, 0, 28, 4, 0)
s = 90: (0, 0, 0, 0, 0, 22, 5, 16, 0, 22, 5, 0)
s = 91: (0, 0, 0, 0, 0, 24, 5, 10, 0, 24, 3, 0)
s = 92: (0, 0, 0, 0, 0, 23, 5, 9, 0, 42, 4, 0)
s = 93: (0, 0, 0, 0, 0, 19, 8, 13, 0, 25, 2, 0)
s = 94: (0, 0, 0, 0, 0, 25, 7, 13, 0, 35, 4, 0)
s = 95: (0, 0, 0, 0, 0, 22, 7, 12, 0, 25, 3, 0)
s = 96: (0, 0, 0, 0, 0, 35, 5, 8, 0, 18, 4, 0)
s = 97: (0, 0, 0, 0, 0, 19, 9, 14, 0, 31, 2, 0)
s = 98: (0, 0, 0, 0, 0, 34, 6, 17, 0, 31, 4, 0)
s = 99: (0, 0, 0, 0, 0, 17, 7, 10, 0, 18, 4, 0)
s = 100: (0, 0, 0, 0, 0, 18, 4, 10, 0, 27, 5, 0)
s = 101: (0, 0, 0, 0, 0, 22, 6, 12, 0, 36, 4, 0)
s = 102: (0, 0, 0, 0, 0, 27, 7, 12, 0, 31, 3, 0)
s = 103: (0, 0, 0, 0, 0, 36, 5, 8, 0, 21, 4, 0)
s = 104: (0, 0, 0, 0, 0, 20, 8, 13, 0, 38, 3, 0)
s = 105: (0, 0, 0, 0, 0, 20, 6, 17, 0, 23, 4, 0)
s = 106: (0, 0, 0, 0, 0, 18, 7, 13, 0, 28, 3, 0)
s = 107: (0, 0, 0, 0, 0, 15, 8, 9, 0, 29, 3, 0)
s = 108: (0, 0, 0, 0, 0, 16, 5, 11, 0, 38, 3, 0)
s = 109: (0, 0, 0, 0, 0, 18, 5, 10, 0, 39, 3, 0)
s = 110: (0, 0, 0, 0, 0, 36, 6, 17, 0, 21, 5, 0)
s = 111: (0, 0, 0, 0, 0, 20, 4, 10, 0, 22, 4, 0)
s = 112: (0, 0, 0, 0, 0, 20, 7, 18, 0, 43, 3, 0)
s = 113: (0, 0, 0, 0, 0, 45, 7, 10, 0, 32, 4, 0)
s = 114: (0, 0, 0, 0, 0, 22, 6, 12, 0, 33, 4, 0)
s = 115: (0, 0, 0, 0, 0, 15, 5, 8, 0, 32, 3, 0)
s = 116: (0, 0, 0, 0, 0, 35, 5, 10, 0, 28, 3, 0)
s = 117: (0, 0, 0, 0, 0, 34, 7, 11, 0, 22, 3, 0)
s = 118: (0, 0, 0, 0, 0, 22, 4, 9, 0, 31, 3, 0)
s = 119: (0, 0, 0, 0, 0, 27, 7, 15, 0, 22, 2, 0)
s = 120: (0, 0, 0, 0, 0, 19, 4, 10, 0, 41, 3, 0)
s = 121: (0, 0, 0, 0, 0, 15, 5, 15, 0, 28, 3, 0)
s = 122: (0, 0, 0, 0, 0, 20, 5, 13, 0, 20, 4, 0)
s = 123: (0, 0, 0, 0, 0, 13, 4, 14, 0, 17, 4, 0)
s = 124: (0, 0, 0, 0, 0, 29, 8, 18, 0, 27, 3, 0)
s = 125: (0, 0, 0, 0, 0, 22, 5, 14, 0, 21, 3, 0)
s = 126: (0, 0, 0, 0, 0, 32, 9, 7, 0, 25, 3, 0)
s = 127: (0, 0, 0, 0, 0, 20, 8, 12, 0, 46, 3, 0)
s = 128: (0, 0, 0, 0, 0, 17, 6, 13, 0, 17, 5, 0)
s = 129: (0, 0, 0, 0, 0, 32, 7, 14, 0, 28, 3, 0)
s = 130: (0, 0, 0, 0, 0, 22, 7, 8, 0, 20, 6, 0)
s = 131: (0, 0, 0, 0, 0, 20, 5, 12, 0, 34, 4, 0)
s = 132: (0, 0, 0, 0, 0, 26, 5, 13, 0, 31, 4, 0)
s = 133: (0, 0, 0, 0, 0, 25, 10, 17, 0, 25, 3, 0)
s = 134: (0, 0, 0, 0, 0, 30, 6, 11, 0, 18, 3, 0)
s = 135: (0, 0, 0, 0, 0, 31, 8, 8, 0, 37, 3, 0)
s = 136: (0, 0, 0, 0, 0, 26, 6, 10, 0, 26, 3, 0)
s = 137: (0, 0, 0, 0, 0, 20, 6, 18, 0, 35, 2, 0)
s = 138: (0, 0, 0, 0, 0, 26, 7, 15, 0, 27, 3, 0)
s = 139: (0, 0, 0, 0, 0, 21, 6, 9, 0, 34, 5, 0)
s = 140: (0, 0, 0, 0, 0, 39, 6, 8, 0, 28, 3, 0)
s = 141: (0, 0, 0, 0, 0, 29, 8, 10, 0, 53, 3, 0)
s = 142: (0, 0, 0, 0, 0, 19, 4, 14, 0, 32, 4, 0)
s = 143: (0, 0, 0, 0, 0, 24, 6, 18, 0, 16, 3, 0)
s = 144: (0, 0, 0, 0, 0, 27, 7, 15, 0, 33, 3, 0)
s = 145: (0, 0, 0, 0, 0, 19, 7, 9, 0, 18, 3, 0)
s = 146: (0, 0, 0, 0, 0, 25, 5, 13, 0, 36, 3, 0)
s = 147: (0, 0, 0, 0, 0, 26, 5, 14, 0, 34, 2, 0)
s = 148: (0, 0, 0, 0, 0, 26, 6, 14, 0, 22, 4, 0)
s = 149: (0, 0, 0, 0, 0, 40, 8, 14, 0, 47, 3, 0)
s = 150: (0, 0, 0, 0, 0, 31, 9, 13, 0, 21, 4, 0)
s = 151: (0, 0, 0, 0, 0, 30, 4, 13, 0, 33, 4, 0)
s = 152: (0, 0, 0, 0, 0, 17, 7, 20, 0, 24, 2, 0)
s = 153: (0, 0, 0, 0, 0, 41, 5, 15, 0, 16, 4, 0)
s = 154: (0, 0, 0, 0, 0, 13, 6, 9, 0, 39, 3, 0)
s = 155: (0, 0, 0, 0, 0, 35, 11, 14, 0, 24, 3, 0)
s = 156: (0, 0, 0, 0, 0, 22, 8, 12, 0, 21, 3, 0)
s = 157: (0, 0, 0, 0, 0, 28, 6, 11, 0, 21, 3, 0)
s = 158: (0, 0, 0, 0, 0, 16, 7, 9, 0, 16, 4, 0)
s = 159: (0, 0, 0, 0, 0, 36, 7, 22, 0, 31, 3, 0)
s = 160: (0, 0, 0, 0, 0, 20, 6, 20, 0, 40, 3, 0)
s = 161: (0, 0, 0, 0, 0, 16, 7, 13, 0, 28, 3, 0)
s = 162: (0, 0, 0, 0, 0, 16, 5, 15, 0, 28, 3, 0)
s = 163: (0, 0, 0, 0, 0, 31, 6, 15, 0, 26, 2, 0)
s = 164: (0, 0, 0, 0, 0, 16, 6, 13, 0, 18, 5, 0)
s = 165: (0, 0, 0, 0, 0, 29, 9, 10, 0, 30, 2, 0)
s = 166: (0, 0, 0, 0, 0, 30, 5, 11, 0, 18, 3, 0)
s = 167: (0, 0, 0, 0, 0, 22, 8, 14, 0, 28, 3, 0)
s = 168: (0, 0, 0, 0, 0, 18, 5, 8, 0, 39, 3, 0)
s = 169: (0, 0, 0, 0, 0, 23, 7, 9, 0, 19, 3, 0)
s = 170: (0, 0, 0, 0, 0, 20, 6, 12, 0, 34, 3, 0)
s = 171: (0, 0, 0, 0, 0, 27, 7, 8, 0, 20, 3, 0)
s = 172: (0, 0, 0, 0, 0, 26, 5, 14, 0, 28, 3, 0)
s = 173: (0, 0, 0, 0, 0, 16, 4, 15, 0, 34, 3, 0)
s = 174: (0, 0, 0, 0, 0, 25, 8, 17, 0, 23, 3, 0)
s = 175: (0, 0, 0, 0, 0, 21, 5, 17, 0, 28, 4, 0)
s = 176: (0, 0, 0, 0, 0, 33, 7, 12, 0, 27, 4, 0)
s = 177: (0, 0, 0, 0, 0, 26, 6, 10, 0, 34, 3, 0)
s = 178: (0, 0, 0, 0, 0, 16, 7, 12, 0, 37, 5, 0)
s = 179: (0, 0, 0, 0, 0, 39, 6, 10, 0, 33, 4, 0)
s = 180: (0, 0, 0, 0, 0, 21, 6, 14, 0, 43, 3, 0)
s = 181: (0, 0, 0, 0, 0, 44, 6, 8, 0, 26, 4, 0)
s = 182: (0, 0, 0, 0, 0, 28, 6, 18, 0, 24, 3, 0)
s = 183: (0, 0, 0, 0, 0, 30, 6, 10, 0, 41, 3, 0)
s = 184: (0, 0, 0, 0, 0, 27, 6, 17, 0, 27, 2, 0)
s = 185: (0, 0, 0, 0, 0, 21, 8, 12, 0, 44, 5, 0)
s = 186: (0, 0, 0, 0, 0, 20, 5, 9, 0, 36, 3, 0)
s = 187: (0, 0, 0, 0, 0, 14, 5, 20, 0, 17, 4, 0)
s = 188: (0, 0, 0, 0, 0, 22, 10, 12, 0, 33, 3, 0)
s = 189: (0, 0, 0, 0, 0, 36, 7, 13, 0, 25, 5, 0)
s = 190: (0, 0, 0, 0, 0, 15, 8, 10, 0, 19, 2, 0)
s = 191: (0, 0, 0, 0, 0, 22, 4, 10, 0, 19, 3, 0)
s = 192: (0, 0, 0, 0, 0, 18, 5, 11, 0, 24, 4, 0)
s = 193: (0, 0, 0, 0, 0, 22, 5, 16, 0, 31, 4, 0)
s = 194: (0, 0, 0, 0, 0, 45, 5, 14, 0, 32, 5, 0)
s = 195: (0, 0, 0, 0, 0, 13, 8, 13, 0, 39, 5, 0)
s = 196: (0, 0, 0, 0, 0, 28, 7, 12, 0, 32, 4, 0)
s = 197: (0, 0, 0, 0, 0, 37, 7, 9, 0, 28, 4, 0)
s = 198: (0, 0, 0, 0, 0, 25, 5, 10, 0, 27, 4, 0)
s = 199: (0, 0, 0, 0, 0, 25, 4, 8, 0, 19, 3, 0)
s = 200: (0, 0, 0, 0, 0, 19, 8, 10, 0, 32, 4, 0)
------------------------------------------------------------------------
RESOURCE k = 3
s = 1: (0, 4, 14, 16, 4, 0, 0, 0, 13, 0, 0, 0)
s = 2: (0, 3, 20, 14, 3, 0, 0, 0, 9, 0, 0, 0)
s = 3: (0, 3, 24, 13, 4, 0, 0, 0, 20, 0, 0, 0)
s = 4: (0, 4, 19, 15, 4, 0, 0, 0, 18, 0, 0, 0)
s = 5: (0, 4, 15, 21, 3, 0, 0, 0, 13, 0, 0, 0)
s = 6: (0, 2, 14, 18, 5, 0, 0, 0, 13, 0, 0, 0)
s = 7: (0, 4, 14, 13, 3, 0, 0, 0, 16, 0, 0, 0)
s = 8: (0, 4, 25, 19, 4, 0, 0, 0, 12, 0, 0, 0)
s = 9: (0, 4, 16, 13, 4, 0, 0, 0, 13, 0, 0, 0)
s = 10: (0, 3, 11, 14, 4, 0, 0, 0, 13, 0, 0, 0)
s = 11: (0, 3, 19, 22, 4, 0, 0, 0, 12, 0, 0, 0)
s = 12: (0, 5, 23, 12, 4, 0, 0, 0, 9, 0, 0, 0)
s = 13: (0, 3, 18, 25, 4, 0, 0, 0, 13, 0, 0, 0)
s = 14: (0, 4, 20, 13, 4, 0, 0, 0, 16, 0, 0, 0)
s = 15: (0, 4, 30, 15, 3, 0, 0, 0, 15, 0, 0, 0)
s = 16: (0, 4, 15, 17, 5, 0, 0, 0, 19, 0, 0, 0)
s = 17: (0, 4, 16, 13, 4, 0, 0, 0, 23, 0, 0, 0)
s = 18: (0, 4, 22, 14, 5, 0, 0, 0, 25, 0, 0, 0)
s = 19: (0, 4, 13, 20, 3, 0, 0, 0, 13, 0, 0, 0)
s = 20: (0, 5, 16, 11, 3, 0, 0, 0, 14, 0, 0, 0)
s = 21: (0, 6, 24, 19, 4, 0, 0, 0, 9, 0, 0, 0)
s = 22: (0, 4, 24, 19, 2, 0, 0, 0, 11, 0, 0, 0)
s = 23: (0, 4, 22, 10, 4, 0, 0, 0, 19, 0, 0, 0)
s = 24: (0, 4, 14, 25, 4, 0, 0, 0, 12, 0, 0, 0)
s = 25: (0, 4, 25, 17, 5, 0, 0, 0, 12, 0, 0, 0)
s = 26: (0, 4, 18, 20, 3, 0, 0, 0, 10, 0, 0, 0)
s = 27: (0, 3, 24, 10, 4, 0, 0, 0, 14, 0, 0, 0)
s = 28: (0, 4, 31, 13, 4, 0, 0, 0, 16, 0, 0, 0)
s = 29: (0, 4, 23, 22, 4, 0, 0, 0, 15, 0, 0, 0)
s = 30: (0, 3, 21, 12, 3, 0, 0, 0, 19, 0, 0, 0)
s = 31: (0, 4, 23, 16, 5, 0, 0, 0, 15, 0, 0, 0)
s = 32: (0, 4, 19, 15, 4, 0, 0, 0, 11, 0, 0, 0)
s = 33: (0, 4, 23, 18, 4, 0, 0, 0, 16, 0, 0, 0)
s = 34: (0, 4, 19, 14, 3, 0, 0, 0, 9, 0, 0, 0)
s = 35: (0, 4, 13, 21, 5, 0, 0, 0, 14, 0, 0, 0)
s = 36: (0, 3, 26, 13, 3, 0, 0, 0, 23, 0, 0, 0)
s = 37: (0, 3, 19, 21, 4, 0, 0, 0, 18, 0, 0, 0)
s = 38: (0, 3, 18, 22, 3, 0, 0, 0, 20, 0, 0, 0)
s = 39: (0, 3, 21, 20, 3, 0, 0, 0, 10, 0, 0, 0)
s = 40: (0, 2, 20, 10, 4, 0, 0, 0, 14, 0, 0, 0)
s = 41: (0, 5, 22, 11, 3, 0, 0, 0, 24, 0, 0, 0)
s = 42: (0, 4, 20, 17, 2, 0, 0, 0, 21, 0, 0, 0)
s = 43: (0, 3, 22, 20, 5, 0, 0, 0, 14, 0, 0, 0)
s = 44: (0, 4, 20, 17, 3, 0, 0, 0, 13, 0, 0, 0)
s = 45: (0, 3, 29, 19, 2, 0, 0, 0, 11, 0, 0, 0)
s = 46: (0, 2, 21, 24, 3, 0, 0, 0, 19, 0, 0, 0)
s = 47: (0, 4, 25, 16, 4, 0, 0, 0, 17, 0, 0, 0)
s = 48: (0, 5, 23, 12, 3, 0, 0, 0, 9, 0, 0, 0)
s = 49: (0, 2, 21, 17, 3, 0, 0, 0, 11, 0, 0, 0)
s = 50: (0, 4, 24, 13, 3, 0, 0, 0, 12, 0, 0, 0)
s = 51: (0, 4, 13, 11, 4, 0, 0, 0, 9, 0, 0, 0)
s = 52: (0, 3, 23, 20, 3, 0, 0, 0, 13, 0, 0, 0)
s = 53: (0, 5, 19, 21, 4, 0, 0, 0, 14, 0, 0, 0)
s = 54: (0, 3, 13, 15, 4, 0, 0, 0, 10, 0, 0, 0)
s = 55: (0, 5, 15, 21, 3, 0, 0, 0, 15, 0, 0, 0)
s = 56: (0, 4, 30, 17, 3, 0, 0, 0, 11, 0, 0, 0)
s = 57: (0, 3, 26, 23, 4, 0, 0, 0, 12, 0, 0, 0)
s = 58: (0, 4, 30, 13, 5, 0, 0, 0, 17, 0, 0, 0)
s = 59: (0, 5, 29, 26, 2, 0, 0, 0, 15, 0, 0, 0)
s = 60: (0, 5, 16, 23, 4, 0, 0, 0, 15, 0, 0, 0)
s = 61: (0, 5, 16, 22, 3, 0, 0, 0, 10, 0, 0, 0)
s = 62: (0, 3, 22, 14, 4, 0, 0, 0, 13, 0, 0, 0)
s = 63: (0, 4, 21, 28, 2, 0, 0, 0, 15, 0, 0, 0)
s = 64: (0, 4, 22, 18, 4, 0, 0, 0, 14, 0, 0, 0)
s = 65: (0, 6, 29, 18, 5, 0, 0, 0, 14, 0, 0, 0)
s = 66: (0, 4, 27, 17, 2, 0, 0, 0, 11, 0, 0, 0)
s = 67: (0, 4, 36, 25, 4, 0, 0, 0, 9, 0, 0, 0)
s = 68: (0, 3, 18, 14, 3, 0, 0, 0, 26, 0, 0, 0)
s = 69: (0, 3, 23, 16, 4, 0, 0, 0, 20, 0, 0, 0)
s = 70: (0, 2, 20, 13, 4, 0, 0, 0, 17, 0, 0, 0)
s = 71: (0, 3, 19, 16, 3, 0, 0, 0, 16, 0, 0, 0)
s = 72: (0, 4, 16, 11, 3, 0, 0, 0, 12, 0, 0, 0)
s = 73: (0, 5, 18, 12, 4, 0, 0, 0, 18, 0, 0, 0)
s = 74: (0, 3, 26, 12, 5, 0, 0, 0, 12, 0, 0, 0)
s = 75: (0, 3, 17, 16, 4, 0, 0, 0, 15, 0, 0, 0)
s = 76: (0, 3, 26, 17, 3, 0, 0, 0, 23, 0, 0, 0)
s = 77: (0, 4, 23, 17, 3, 0, 0, 0, 12, 0, 0, 0)
s = 78: (0, 4, 22, 19, 3, 0, 0, 0, 10, 0, 0, 0)
s = 79: (0, 4, 19, 9, 3, 0, 0, 0, 15, 0, 0, 0)
s = 80: (0, 3, 15, 18, 3, 0, 0, 0, 17, 0, 0, 0)
s = 81: (0, 3, 23, 18, 3, 0, 0, 0, 13, 0, 0, 0)
s = 82: (0, 2, 30, 21, 3, 0, 0, 0, 20, 0, 0, 0)
s = 83: (0, 4, 17, 15, 3, 0, 0, 0, 13, 0, 0, 0)
s = 84: (0, 3, 12, 22, 4, 0, 0, 0, 13, 0, 0, 0)
s = 85: (0, 4, 31, 9, 4, 0, 0, 0, 21, 0, 0, 0)
s = 86: (0, 4, 21, 17, 3, 0, 0, 0, 21, 0, 0, 0)
s = 87: (0, 3, 17, 22, 4, 0, 0, 0, 8, 0, 0, 0)
s = 88: (0, 4, 19, 20, 4, 0, 0, 0, 19, 0, 0, 0)
s = 89: (0, 5, 29, 11, 2, 0, 0, 0, 16, 0, 0, 0)
s = 90: (0, 5, 28, 20, 5, 0, 0, 0, 14, 0, 0, 0)
s = 91: (0, 3, 17, 14, 3, 0, 0, 0, 16, 0, 0, 0)
s = 92: (0, 3, 15, 18, 3, 0, 0, 0, 20, 0, 0, 0)
s = 93: (0, 4, 23, 12, 3, 0, 0, 0, 14, 0, 0, 0)
s = 94: (0, 3, 23, 19, 4, 0, 0, 0, 15, 0, 0, 0)
s = 95: (0, 5, 28, 12, 3, 0, 0, 0, 13, 0, 0, 0)
s = 96: (0, 3, 19, 14, 3, 0, 0, 0, 14, 0, 0, 0)
s = 97: (0, 5, 15, 14, 3, 0, 0, 0, 10, 0, 0, 0)
s = 98: (0, 3, 17, 14, 3, 0, 0, 0, 10, 0, 0, 0)
s = 99: (0, 3, 20, 15, 2, 0, 0, 0, 15, 0, 0, 0)
s = 100: (0, 5, 18, 20, 3, 0, 0, 0, 11, 0, 0, 0)
s = 101: (0, 3, 18, 15, 3, 0, 0, 0, 19, 0, 0, 0)
s = 102: (0, 3, 28, 13, 3, 0, 0, 0, 20, 0, 0, 0)
s = 103: (0, 3, 15, 12, 4, 0, 0, 0, 11, 0, 0, 0)
s = 104: (0, 4, 14, 15, 3, 0, 0, 0, 9, 0, 0, 0)
s = 105: (0, 3, 18, 12, 3, 0, 0, 0, 15, 0, 0, 0)
s = 106: (0, 3, 13, 19, 5, 0, 0, 0, 19, 0, 0, 0)
s = 107: (0, 4, 11, 29, 3, 0, 0, 0, 16, 0, 0, 0)
s = 108: (0, 5, 16, 22, 2, 0, 0, 0, 10, 0, 0, 0)
s = 109: (0, 3, 15, 23, 4, 0, 0, 0, 11, 0, 0, 0)
s = 110: (0, 6, 21, 17, 3, 0, 0, 0, 9, 0, 0, 0)
s = 111: (0, 3, 30, 16, 3, 0, 0, 0, 15, 0, 0, 0)
s = 112: (0, 4, 28, 15, 4, 0, 0, 0, 20, 0, 0, 0)
s = 113: (0, 5, 18, 14, 3, 0, 0, 0, 20, 0, 0, 0)
s = 114: (0, 5, 22, 13, 5, 0, 0, 0, 16, 0, 0, 0)
s = 115: (0, 3, 14, 12, 5, 0, 0, 0, 21, 0, 0, 0)
s = 116: (0, 4, 15, 19, 2, 0, 0, 0, 19, 0, 0, 0)
s = 117: (0, 5, 21, 13, 3, 0, 0, 0, 10, 0, 0, 0)
s = 118: (0, 2, 16, 20, 3, 0, 0, 0, 21, 0, 0, 0)
s = 119: (0, 3, 28, 14, 2, 0, 0, 0, 16, 0, 0, 0)
s = 120: (0, 3, 30, 20, 5, 0, 0, 0, 14, 0, 0, 0)
s = 121: (0, 3, 18, 25, 3, 0, 0, 0, 16, 0, 0, 0)
s = 122: (0, 4, 23, 19, 5, 0, 0, 0, 17, 0, 0, 0)
s = 123: (0, 4, 31, 21, 2, 0, 0, 0, 23, 0, 0, 0)
s = 124: (0, 3, 17, 15, 3, 0, 0, 0, 25, 0, 0, 0)
s = 125: (0, 4, 20, 14, 5, 0, 0, 0, 22, 0, 0, 0)
s = 126: (0, 4, 15, 19, 3, 0, 0, 0, 22, 0, 0, 0)
s = 127: (0, 3, 31, 12, 3, 0, 0, 0, 11, 0, 0, 0)
s = 128: (0, 3, 27, 12, 3, 0, 0, 0, 18, 0, 0, 0)
s = 129: (0, 3, 26, 15, 3, 0, 0, 0, 20, 0, 0, 0)
s = 130: (0, 3, 26, 16, 3, 0, 0, 0, 12, 0, 0, 0)
s = 131: (0, 3, 31, 9, 3, 0, 0, 0, 19, 0, 0, 0)
s = 132: (0, 3, 23, 13, 3, 0, 0, 0, 10, 0, 0, 0)
s = 133: (0, 4, 17, 10, 5, 0, 0, 0, 12, 0, 0, 0)
s = 134: (0, 4, 20, 28, 4, 0, 0, 0, 23, 0, 0, 0)
s = 135: (0, 3, 16, 14, 2, 0, 0, 0, 13, 0, 0, 0)
s = 136: (0, 5, 28, 18, 3, 0, 0, 0, 20, 0, 0, 0)
s = 137: (0, 4, 17, 20, 5, 0, 0, 0, 8, 0, 0, 0)
s = 138: (0, 5, 26, 12, 4, 0, 0, 0, 14, 0, 0, 0)
s = 139: (0, 3, 22, 16, 3, 0, 0, 0, 17, 0, 0, 0)
s = 140: (0, 5, 22, 20, 4, 0, 0, 0, 12, 0, 0, 0)
s = 141: (0, 2, 28, 18, 4, 0, 0, 0, 10, 0, 0, 0)
s = 142: (0, 4, 33, 17, 3, 0, 0, 0, 13, 0, 0, 0)
s = 143: (0, 3, 30, 18, 2, 0, 0, 0, 23, 0, 0, 0)
s = 144: (0, 3, 26, 18, 3, 0, 0, 0, 16, 0, 0, 0)
s = 145: (0, 4, 17, 13, 4, 0, 0, 0, 17, 0, 0, 0)
s = 146: (0, 3, 21, 18, 3, 0, 0, 0, 10, 0, 0, 0)
s = 147: (0, 3, 19, 15, 3, 0, 0, 0, 17, 0, 0, 0)
s = 148: (0, 3, 17, 18, 2, 0, 0, 0, 10, 0, 0, 0)
s = 149: (0, 4, 16, 14, 4, 0, 0, 0, 16, 0, 0, 0)
s = 150: (0, 4, 18, 10, 5, 0, 0, 0, 12, 0, 0, 0)
s = 151: (0, 3, 22, 17, 2, 0, 0, 0, 13, 0, 0, 0)
s = 152: (0, 5, 22, 21, 6, 0, 0, 0, 10, 0, 0, 0)
s = 153: (0, 2, 16, 16, 3, 0, 0, 0, 22, 0, 0, 0)
s = 154: (0, 4, 13, 12, 2, 0, 0, 0, 13, 0, 0, 0)
s = 155: (0, 4, 29, 18, 4, 0, 0, 0, 10, 0, 0, 0)
s = 156: (0, 3, 16, 23, 4, 0, 0, 0, 10, 0, 0, 0)
s = 157: (0, 2, 15, 16, 4, 0, 0, 0, 11, 0, 0, 0)
s = 158: (0, 3, 19, 9, 2, 0, 0, 0, 8, 0, 0, 0)
s = 159: (0, 3, 18, 18, 3, 0, 0, 0, 16, 0, 0, 0)
s = 160: (0, 3, 29, 16, 3, 0, 0, 0, 13, 0, 0, 0)
s = 161: (0, 3, 30, 16, 4, 0, 0, 0, 15, 0, 0, 0)
s = 162: (0, 4, 22, 11, 2, 0, 0, 0, 20, 0, 0, 0)
s = 163: (0, 5, 26, 16, 4, 0, 0, 0, 14, 0, 0, 0)
s = 164: (0, 3, 23, 16, 5, 0, 0, 0, 11, 0, 0, 0)
s = 165: (0, 5, 13, 14, 3, 0, 0, 0, 17, 0, 0, 0)
s = 166: (0, 3, 28, 18, 4, 0, 0, 0, 10, 0, 0, 0)
s = 167: (0, 4, 24, 11, 5, 0, 0, 0, 13, 0, 0, 0)
s = 168: (0, 4, 34, 18, 3, 0, 0, 0, 11, 0, 0, 0)
s = 169: (0, 3, 29, 9, 4, 0, 0, 0, 9, 0, 0, 0)
s = 170: (0, 3, 20, 13, 3, 0, 0, 0, 18, 0, 0, 0)
s = 171: (0, 3, 24, 19, 2, 0, 0, 0, 16, 0, 0, 0)
s = 172: (0, 3, 18, 13, 3, 0, 0, 0, 18, 0, 0, 0)
s = 173: (0, 4, 22, 15, 4, 0, 0, 0, 13, 0, 0, 0)
s = 174: (0, 5, 19, 16, 6, 0, 0, 0, 15, 0, 0, 0)
s = 175: (0, 3, 21, 18, 2, 0, 0, 0, 12, 0, 0, 0)
s = 176: (0, 4, 25, 15, 4, 0, 0, 0, 23, 0, 0, 0)
s = 177: (0, 3, 20, 11, 6, 0, 0, 0, 15, 0, 0, 0)
s = 178: (0, 2, 29, 9, 5, 0, 0, 0, 15, 0, 0, 0)
s = 179: (0, 3, 22, 14, 5, 0, 0, 0, 15, 0, 0, 0)
s = 180: (0, 3, 22, 24, 5, 0, 0, 0, 11, 0, 0, 0)
s = 181: (0, 3, 12, 17, 5, 0, 0, 0, 13, 0, 0, 0)
s = 182: (0, 3, 21, 19, 3, 0, 0, 0, 8, 0, 0, 0)
s = 183: (0, 4, 20, 21, 4, 0, 0, 0, 16, 0, 0, 0)
s = 184: (0, 3, 27, 9, 3, 0, 0, 0, 15, 0, 0, 0)
s = 185: (0, 6, 20, 14, 4, 0, 0, 0, 11, 0, 0, 0)
s = 186: (0, 2, 20, 18, 3, 0, 0, 0, 9, 0, 0, 0)
s = 187: (0, 3, 31, 13, 2, 0, 0, 0, 12, 0, 0, 0)
s = 188: (0, 3, 14, 23, 4, 0, 0, 0, 19, 0, 0, 0)
s = 189: (0, 3, 14, 17, 3, 0, 0, 0, 13, 0, 0, 0)
s = 190: (0, 2, 17, 15, 4, 0, 0, 0, 13, 0, 0, 0)
s = 191: (0, 5, 19, 17, 3, 0, 0, 0, 12, 0, 0, 0)
s = 192: (0, 4, 38, 23, 4, 0, 0, 0, 18, 0, 0, 0)
s = 193: (0, 4, 21, 11, 3, 0, 0, 0, 18, 0, 0, 0)
s = 194: (0, 3, 26, 17, 6, 0, 0, 0, 11, 0, 0, 0)
s = 195: (0, 5, 15, 18, 3, 0, 0, 0, 17, 0, 0, 0)
s = 196: (0, 4, 16, 13, 4, 0, 0, 0, 8, 0, 0, 0)
s = 197: (0, 3, 13, 16, 3, 0, 0, 0, 9, 0, 0, 0)
s = 198: (0, 2, 19, 20, 4, 0, 0, 0, 16, 0, 0, 0)
s = 199: (0, 4, 18, 20, 4, 0, 0, 0, 15, 0, 0, 0)
s = 200: (0, 4, 25, 26, 3, 0, 0, 0, 14, 0, 0, 0)
************************************************************************
ES/LS-VALUES:
jobnr.   ES(i)    LS(i)
------------------------------------------------------------------------
  0        0        0
  1        0       59
  2        0       43
  3        0       42
  4        9       65
  5       14       61
  6        9       53
  7       14       57
  8        9       65
  9       17       61
 10       19       67
 11       24       69
************************************************************************
BIG-M-VALUES:
M1 = 65, M2 = 198
************************************************************************
